Version identifier: 12.10.0.0 | 2019-11-26 | 843d4de
CPXPARAM_Read_DataCheck                          1
CPXPARAM_RandomSeed                              201903125
CPXPARAM_TimeLimit                               7200
Parallel mode: deterministic, using up to 8 threads for concurrent optimization:
 * Starting dual Simplex on 1 thread...
 * Starting Barrier on 6 threads...
 * Starting primal Simplex on 1 thread...
Tried aggregator 1 time.
No LP presolve or aggregator reductions.
Presolve time = 0.00 sec. (4.39 ticks)

Iteration log . . .
Iteration:     1   Dual objective     =           949.000000
Perturbation started.
Iteration:   101   Dual objective     =           949.000000
Iteration:   222   Dual objective     =           949.015924
Iteration:   427   Dual objective     =           949.021778
Iteration:   645   Dual objective     =           949.021782
Iteration:   860   Dual objective     =           949.021785
Iteration:  1077   Dual objective     =           949.021787
Iteration:  1306   Dual objective     =           949.021789
Iteration:  1539   Dual objective     =           949.021790
Iteration:  1776   Dual objective     =           949.021791
Removing perturbation.

Dual simplex solved model.

